(set-info :smt-lib-version 2.6)
(set-logic QF_SLIA)
(set-info :source |
Generated by: Wei-Cheng Wu
Generated on: 2019-07-28
Generator: Py-Conbyte
Application: Concolic execution of Python code
Target solver: CVC4, Z3, Z3str3, Z3-Trau
|)
(set-info :license "https://creativecommons.org/licenses/by/4.0/")
(set-info :category "industrial")
(set-info :status unknown)
(declare-fun data () String)


(assert ( not ( or ( or ( or ( or ( or ( or ( or ( or ( or ( or ( or ( or ( or ( or ( or ( or ( or ( or ( or ( or ( or ( or ( or ( = "jan" "aaaae"  ) ( = "feb" "aaaae"  )  ) ( = "mar" "aaaae"  )  ) ( = "apr" "aaaae"  )  ) ( = "may" "aaaae"  )  ) ( = "jun" "aaaae"  )  ) ( = "jul" "aaaae"  )  ) ( = "aug" "aaaae"  )  ) ( = "sep" "aaaae"  )  ) ( = "oct" "aaaae"  )  ) ( = "nov" "aaaae"  )  ) ( = "dec" "aaaae"  )  ) ( = "january" "aaaae"  )  ) ( = "february" "aaaae"  )  ) ( = "march" "aaaae"  )  ) ( = "april" "aaaae"  )  ) ( = "may" "aaaae"  )  ) ( = "june" "aaaae"  )  ) ( = "july" "aaaae"  )  ) ( = "august" "aaaae"  )  ) ( = "september" "aaaae"  )  ) ( = "october" "aaaae"  )  ) ( = "november" "aaaae"  )  ) ( = "december" "aaaae"  )  )  ))

(assert (not ( < 5 5  )))

(assert (not ( > ( str.indexof ( str.substr ( str.substr ( str.substr ( str.substr data ( + ( str.indexof data " " 0  ) 1  ) ( - ( str.len data  ) ( + ( str.indexof data " " 0  ) 1  )  )  ) ( + ( str.indexof ( str.substr data ( + ( str.indexof data " " 0  ) 1  ) ( - ( str.len data  ) ( + ( str.indexof data " " 0  ) 1  )  )  ) " " 0  ) 1  ) ( - ( str.len ( str.substr data ( + ( str.indexof data " " 0  ) 1  ) ( - ( str.len data  ) ( + ( str.indexof data " " 0  ) 1  )  )  )  ) ( + ( str.indexof ( str.substr data ( + ( str.indexof data " " 0  ) 1  ) ( - ( str.len data  ) ( + ( str.indexof data " " 0  ) 1  )  )  ) " " 0  ) 1  )  )  ) ( + ( str.indexof ( str.substr ( str.substr data ( + ( str.indexof data " " 0  ) 1  ) ( - ( str.len data  ) ( + ( str.indexof data " " 0  ) 1  )  )  ) ( + ( str.indexof ( str.substr data ( + ( str.indexof data " " 0  ) 1  ) ( - ( str.len data  ) ( + ( str.indexof data " " 0  ) 1  )  )  ) " " 0  ) 1  ) ( - ( str.len ( str.substr data ( + ( str.indexof data " " 0  ) 1  ) ( - ( str.len data  ) ( + ( str.indexof data " " 0  ) 1  )  )  )  ) ( + ( str.indexof ( str.substr data ( + ( str.indexof data " " 0  ) 1  ) ( - ( str.len data  ) ( + ( str.indexof data " " 0  ) 1  )  )  ) " " 0  ) 1  )  )  ) " " 0  ) 1  ) ( - ( str.len ( str.substr ( str.substr data ( + ( str.indexof data " " 0  ) 1  ) ( - ( str.len data  ) ( + ( str.indexof data " " 0  ) 1  )  )  ) ( + ( str.indexof ( str.substr data ( + ( str.indexof data " " 0  ) 1  ) ( - ( str.len data  ) ( + ( str.indexof data " " 0  ) 1  )  )  ) " " 0  ) 1  ) ( - ( str.len ( str.substr data ( + ( str.indexof data " " 0  ) 1  ) ( - ( str.len data  ) ( + ( str.indexof data " " 0  ) 1  )  )  )  ) ( + ( str.indexof ( str.substr data ( + ( str.indexof data " " 0  ) 1  ) ( - ( str.len data  ) ( + ( str.indexof data " " 0  ) 1  )  )  ) " " 0  ) 1  )  )  )  ) ( + ( str.indexof ( str.substr ( str.substr data ( + ( str.indexof data " " 0  ) 1  ) ( - ( str.len data  ) ( + ( str.indexof data " " 0  ) 1  )  )  ) ( + ( str.indexof ( str.substr data ( + ( str.indexof data " " 0  ) 1  ) ( - ( str.len data  ) ( + ( str.indexof data " " 0  ) 1  )  )  ) " " 0  ) 1  ) ( - ( str.len ( str.substr data ( + ( str.indexof data " " 0  ) 1  ) ( - ( str.len data  ) ( + ( str.indexof data " " 0  ) 1  )  )  )  ) ( + ( str.indexof ( str.substr data ( + ( str.indexof data " " 0  ) 1  ) ( - ( str.len data  ) ( + ( str.indexof data " " 0  ) 1  )  )  ) " " 0  ) 1  )  )  ) " " 0  ) 1  )  )  ) ( + ( str.indexof ( str.substr ( str.substr ( str.substr data ( + ( str.indexof data " " 0  ) 1  ) ( - ( str.len data  ) ( + ( str.indexof data " " 0  ) 1  )  )  ) ( + ( str.indexof ( str.substr data ( + ( str.indexof data " " 0  ) 1  ) ( - ( str.len data  ) ( + ( str.indexof data " " 0  ) 1  )  )  ) " " 0  ) 1  ) ( - ( str.len ( str.substr data ( + ( str.indexof data " " 0  ) 1  ) ( - ( str.len data  ) ( + ( str.indexof data " " 0  ) 1  )  )  )  ) ( + ( str.indexof ( str.substr data ( + ( str.indexof data " " 0  ) 1  ) ( - ( str.len data  ) ( + ( str.indexof data " " 0  ) 1  )  )  ) " " 0  ) 1  )  )  ) ( + ( str.indexof ( str.substr ( str.substr data ( + ( str.indexof data " " 0  ) 1  ) ( - ( str.len data  ) ( + ( str.indexof data " " 0  ) 1  )  )  ) ( + ( str.indexof ( str.substr data ( + ( str.indexof data " " 0  ) 1  ) ( - ( str.len data  ) ( + ( str.indexof data " " 0  ) 1  )  )  ) " " 0  ) 1  ) ( - ( str.len ( str.substr data ( + ( str.indexof data " " 0  ) 1  ) ( - ( str.len data  ) ( + ( str.indexof data " " 0  ) 1  )  )  )  ) ( + ( str.indexof ( str.substr data ( + ( str.indexof data " " 0  ) 1  ) ( - ( str.len data  ) ( + ( str.indexof data " " 0  ) 1  )  )  ) " " 0  ) 1  )  )  ) " " 0  ) 1  ) ( - ( str.len ( str.substr ( str.substr data ( + ( str.indexof data " " 0  ) 1  ) ( - ( str.len data  ) ( + ( str.indexof data " " 0  ) 1  )  )  ) ( + ( str.indexof ( str.substr data ( + ( str.indexof data " " 0  ) 1  ) ( - ( str.len data  ) ( + ( str.indexof data " " 0  ) 1  )  )  ) " " 0  ) 1  ) ( - ( str.len ( str.substr data ( + ( str.indexof data " " 0  ) 1  ) ( - ( str.len data  ) ( + ( str.indexof data " " 0  ) 1  )  )  )  ) ( + ( str.indexof ( str.substr data ( + ( str.indexof data " " 0  ) 1  ) ( - ( str.len data  ) ( + ( str.indexof data " " 0  ) 1  )  )  ) " " 0  ) 1  )  )  )  ) ( + ( str.indexof ( str.substr ( str.substr data ( + ( str.indexof data " " 0  ) 1  ) ( - ( str.len data  ) ( + ( str.indexof data " " 0  ) 1  )  )  ) ( + ( str.indexof ( str.substr data ( + ( str.indexof data " " 0  ) 1  ) ( - ( str.len data  ) ( + ( str.indexof data " " 0  ) 1  )  )  ) " " 0  ) 1  ) ( - ( str.len ( str.substr data ( + ( str.indexof data " " 0  ) 1  ) ( - ( str.len data  ) ( + ( str.indexof data " " 0  ) 1  )  )  )  ) ( + ( str.indexof ( str.substr data ( + ( str.indexof data " " 0  ) 1  ) ( - ( str.len data  ) ( + ( str.indexof data " " 0  ) 1  )  )  ) " " 0  ) 1  )  )  ) " " 0  ) 1  )  )  ) " " 0  ) 1  ) ( - ( str.len ( str.substr ( str.substr ( str.substr data ( + ( str.indexof data " " 0  ) 1  ) ( - ( str.len data  ) ( + ( str.indexof data " " 0  ) 1  )  )  ) ( + ( str.indexof ( str.substr data ( + ( str.indexof data " " 0  ) 1  ) ( - ( str.len data  ) ( + ( str.indexof data " " 0  ) 1  )  )  ) " " 0  ) 1  ) ( - ( str.len ( str.substr data ( + ( str.indexof data " " 0  ) 1  ) ( - ( str.len data  ) ( + ( str.indexof data " " 0  ) 1  )  )  )  ) ( + ( str.indexof ( str.substr data ( + ( str.indexof data " " 0  ) 1  ) ( - ( str.len data  ) ( + ( str.indexof data " " 0  ) 1  )  )  ) " " 0  ) 1  )  )  ) ( + ( str.indexof ( str.substr ( str.substr data ( + ( str.indexof data " " 0  ) 1  ) ( - ( str.len data  ) ( + ( str.indexof data " " 0  ) 1  )  )  ) ( + ( str.indexof ( str.substr data ( + ( str.indexof data " " 0  ) 1  ) ( - ( str.len data  ) ( + ( str.indexof data " " 0  ) 1  )  )  ) " " 0  ) 1  ) ( - ( str.len ( str.substr data ( + ( str.indexof data " " 0  ) 1  ) ( - ( str.len data  ) ( + ( str.indexof data " " 0  ) 1  )  )  )  ) ( + ( str.indexof ( str.substr data ( + ( str.indexof data " " 0  ) 1  ) ( - ( str.len data  ) ( + ( str.indexof data " " 0  ) 1  )  )  ) " " 0  ) 1  )  )  ) " " 0  ) 1  ) ( - ( str.len ( str.substr ( str.substr data ( + ( str.indexof data " " 0  ) 1  ) ( - ( str.len data  ) ( + ( str.indexof data " " 0  ) 1  )  )  ) ( + ( str.indexof ( str.substr data ( + ( str.indexof data " " 0  ) 1  ) ( - ( str.len data  ) ( + ( str.indexof data " " 0  ) 1  )  )  ) " " 0  ) 1  ) ( - ( str.len ( str.substr data ( + ( str.indexof data " " 0  ) 1  ) ( - ( str.len data  ) ( + ( str.indexof data " " 0  ) 1  )  )  )  ) ( + ( str.indexof ( str.substr data ( + ( str.indexof data " " 0  ) 1  ) ( - ( str.len data  ) ( + ( str.indexof data " " 0  ) 1  )  )  ) " " 0  ) 1  )  )  )  ) ( + ( str.indexof ( str.substr ( str.substr data ( + ( str.indexof data " " 0  ) 1  ) ( - ( str.len data  ) ( + ( str.indexof data " " 0  ) 1  )  )  ) ( + ( str.indexof ( str.substr data ( + ( str.indexof data " " 0  ) 1  ) ( - ( str.len data  ) ( + ( str.indexof data " " 0  ) 1  )  )  ) " " 0  ) 1  ) ( - ( str.len ( str.substr data ( + ( str.indexof data " " 0  ) 1  ) ( - ( str.len data  ) ( + ( str.indexof data " " 0  ) 1  )  )  )  ) ( + ( str.indexof ( str.substr data ( + ( str.indexof data " " 0  ) 1  ) ( - ( str.len data  ) ( + ( str.indexof data " " 0  ) 1  )  )  ) " " 0  ) 1  )  )  ) " " 0  ) 1  )  )  )  ) ( + ( str.indexof ( str.substr ( str.substr ( str.substr data ( + ( str.indexof data " " 0  ) 1  ) ( - ( str.len data  ) ( + ( str.indexof data " " 0  ) 1  )  )  ) ( + ( str.indexof ( str.substr data ( + ( str.indexof data " " 0  ) 1  ) ( - ( str.len data  ) ( + ( str.indexof data " " 0  ) 1  )  )  ) " " 0  ) 1  ) ( - ( str.len ( str.substr data ( + ( str.indexof data " " 0  ) 1  ) ( - ( str.len data  ) ( + ( str.indexof data " " 0  ) 1  )  )  )  ) ( + ( str.indexof ( str.substr data ( + ( str.indexof data " " 0  ) 1  ) ( - ( str.len data  ) ( + ( str.indexof data " " 0  ) 1  )  )  ) " " 0  ) 1  )  )  ) ( + ( str.indexof ( str.substr ( str.substr data ( + ( str.indexof data " " 0  ) 1  ) ( - ( str.len data  ) ( + ( str.indexof data " " 0  ) 1  )  )  ) ( + ( str.indexof ( str.substr data ( + ( str.indexof data " " 0  ) 1  ) ( - ( str.len data  ) ( + ( str.indexof data " " 0  ) 1  )  )  ) " " 0  ) 1  ) ( - ( str.len ( str.substr data ( + ( str.indexof data " " 0  ) 1  ) ( - ( str.len data  ) ( + ( str.indexof data " " 0  ) 1  )  )  )  ) ( + ( str.indexof ( str.substr data ( + ( str.indexof data " " 0  ) 1  ) ( - ( str.len data  ) ( + ( str.indexof data " " 0  ) 1  )  )  ) " " 0  ) 1  )  )  ) " " 0  ) 1  ) ( - ( str.len ( str.substr ( str.substr data ( + ( str.indexof data " " 0  ) 1  ) ( - ( str.len data  ) ( + ( str.indexof data " " 0  ) 1  )  )  ) ( + ( str.indexof ( str.substr data ( + ( str.indexof data " " 0  ) 1  ) ( - ( str.len data  ) ( + ( str.indexof data " " 0  ) 1  )  )  ) " " 0  ) 1  ) ( - ( str.len ( str.substr data ( + ( str.indexof data " " 0  ) 1  ) ( - ( str.len data  ) ( + ( str.indexof data " " 0  ) 1  )  )  )  ) ( + ( str.indexof ( str.substr data ( + ( str.indexof data " " 0  ) 1  ) ( - ( str.len data  ) ( + ( str.indexof data " " 0  ) 1  )  )  ) " " 0  ) 1  )  )  )  ) ( + ( str.indexof ( str.substr ( str.substr data ( + ( str.indexof data " " 0  ) 1  ) ( - ( str.len data  ) ( + ( str.indexof data " " 0  ) 1  )  )  ) ( + ( str.indexof ( str.substr data ( + ( str.indexof data " " 0  ) 1  ) ( - ( str.len data  ) ( + ( str.indexof data " " 0  ) 1  )  )  ) " " 0  ) 1  ) ( - ( str.len ( str.substr data ( + ( str.indexof data " " 0  ) 1  ) ( - ( str.len data  ) ( + ( str.indexof data " " 0  ) 1  )  )  )  ) ( + ( str.indexof ( str.substr data ( + ( str.indexof data " " 0  ) 1  ) ( - ( str.len data  ) ( + ( str.indexof data " " 0  ) 1  )  )  ) " " 0  ) 1  )  )  ) " " 0  ) 1  )  )  ) " " 0  ) 1  )  )  ) "-" 0  ) 0  )))

(assert ( = ( str.indexof ( str.substr ( str.substr ( str.substr ( str.substr data ( + ( str.indexof data " " 0  ) 1  ) ( - ( str.len data  ) ( + ( str.indexof data " " 0  ) 1  )  )  ) ( + ( str.indexof ( str.substr data ( + ( str.indexof data " " 0  ) 1  ) ( - ( str.len data  ) ( + ( str.indexof data " " 0  ) 1  )  )  ) " " 0  ) 1  ) ( - ( str.len ( str.substr data ( + ( str.indexof data " " 0  ) 1  ) ( - ( str.len data  ) ( + ( str.indexof data " " 0  ) 1  )  )  )  ) ( + ( str.indexof ( str.substr data ( + ( str.indexof data " " 0  ) 1  ) ( - ( str.len data  ) ( + ( str.indexof data " " 0  ) 1  )  )  ) " " 0  ) 1  )  )  ) ( + ( str.indexof ( str.substr ( str.substr data ( + ( str.indexof data " " 0  ) 1  ) ( - ( str.len data  ) ( + ( str.indexof data " " 0  ) 1  )  )  ) ( + ( str.indexof ( str.substr data ( + ( str.indexof data " " 0  ) 1  ) ( - ( str.len data  ) ( + ( str.indexof data " " 0  ) 1  )  )  ) " " 0  ) 1  ) ( - ( str.len ( str.substr data ( + ( str.indexof data " " 0  ) 1  ) ( - ( str.len data  ) ( + ( str.indexof data " " 0  ) 1  )  )  )  ) ( + ( str.indexof ( str.substr data ( + ( str.indexof data " " 0  ) 1  ) ( - ( str.len data  ) ( + ( str.indexof data " " 0  ) 1  )  )  ) " " 0  ) 1  )  )  ) " " 0  ) 1  ) ( - ( str.len ( str.substr ( str.substr data ( + ( str.indexof data " " 0  ) 1  ) ( - ( str.len data  ) ( + ( str.indexof data " " 0  ) 1  )  )  ) ( + ( str.indexof ( str.substr data ( + ( str.indexof data " " 0  ) 1  ) ( - ( str.len data  ) ( + ( str.indexof data " " 0  ) 1  )  )  ) " " 0  ) 1  ) ( - ( str.len ( str.substr data ( + ( str.indexof data " " 0  ) 1  ) ( - ( str.len data  ) ( + ( str.indexof data " " 0  ) 1  )  )  )  ) ( + ( str.indexof ( str.substr data ( + ( str.indexof data " " 0  ) 1  ) ( - ( str.len data  ) ( + ( str.indexof data " " 0  ) 1  )  )  ) " " 0  ) 1  )  )  )  ) ( + ( str.indexof ( str.substr ( str.substr data ( + ( str.indexof data " " 0  ) 1  ) ( - ( str.len data  ) ( + ( str.indexof data " " 0  ) 1  )  )  ) ( + ( str.indexof ( str.substr data ( + ( str.indexof data " " 0  ) 1  ) ( - ( str.len data  ) ( + ( str.indexof data " " 0  ) 1  )  )  ) " " 0  ) 1  ) ( - ( str.len ( str.substr data ( + ( str.indexof data " " 0  ) 1  ) ( - ( str.len data  ) ( + ( str.indexof data " " 0  ) 1  )  )  )  ) ( + ( str.indexof ( str.substr data ( + ( str.indexof data " " 0  ) 1  ) ( - ( str.len data  ) ( + ( str.indexof data " " 0  ) 1  )  )  ) " " 0  ) 1  )  )  ) " " 0  ) 1  )  )  ) ( + ( str.indexof ( str.substr ( str.substr ( str.substr data ( + ( str.indexof data " " 0  ) 1  ) ( - ( str.len data  ) ( + ( str.indexof data " " 0  ) 1  )  )  ) ( + ( str.indexof ( str.substr data ( + ( str.indexof data " " 0  ) 1  ) ( - ( str.len data  ) ( + ( str.indexof data " " 0  ) 1  )  )  ) " " 0  ) 1  ) ( - ( str.len ( str.substr data ( + ( str.indexof data " " 0  ) 1  ) ( - ( str.len data  ) ( + ( str.indexof data " " 0  ) 1  )  )  )  ) ( + ( str.indexof ( str.substr data ( + ( str.indexof data " " 0  ) 1  ) ( - ( str.len data  ) ( + ( str.indexof data " " 0  ) 1  )  )  ) " " 0  ) 1  )  )  ) ( + ( str.indexof ( str.substr ( str.substr data ( + ( str.indexof data " " 0  ) 1  ) ( - ( str.len data  ) ( + ( str.indexof data " " 0  ) 1  )  )  ) ( + ( str.indexof ( str.substr data ( + ( str.indexof data " " 0  ) 1  ) ( - ( str.len data  ) ( + ( str.indexof data " " 0  ) 1  )  )  ) " " 0  ) 1  ) ( - ( str.len ( str.substr data ( + ( str.indexof data " " 0  ) 1  ) ( - ( str.len data  ) ( + ( str.indexof data " " 0  ) 1  )  )  )  ) ( + ( str.indexof ( str.substr data ( + ( str.indexof data " " 0  ) 1  ) ( - ( str.len data  ) ( + ( str.indexof data " " 0  ) 1  )  )  ) " " 0  ) 1  )  )  ) " " 0  ) 1  ) ( - ( str.len ( str.substr ( str.substr data ( + ( str.indexof data " " 0  ) 1  ) ( - ( str.len data  ) ( + ( str.indexof data " " 0  ) 1  )  )  ) ( + ( str.indexof ( str.substr data ( + ( str.indexof data " " 0  ) 1  ) ( - ( str.len data  ) ( + ( str.indexof data " " 0  ) 1  )  )  ) " " 0  ) 1  ) ( - ( str.len ( str.substr data ( + ( str.indexof data " " 0  ) 1  ) ( - ( str.len data  ) ( + ( str.indexof data " " 0  ) 1  )  )  )  ) ( + ( str.indexof ( str.substr data ( + ( str.indexof data " " 0  ) 1  ) ( - ( str.len data  ) ( + ( str.indexof data " " 0  ) 1  )  )  ) " " 0  ) 1  )  )  )  ) ( + ( str.indexof ( str.substr ( str.substr data ( + ( str.indexof data " " 0  ) 1  ) ( - ( str.len data  ) ( + ( str.indexof data " " 0  ) 1  )  )  ) ( + ( str.indexof ( str.substr data ( + ( str.indexof data " " 0  ) 1  ) ( - ( str.len data  ) ( + ( str.indexof data " " 0  ) 1  )  )  ) " " 0  ) 1  ) ( - ( str.len ( str.substr data ( + ( str.indexof data " " 0  ) 1  ) ( - ( str.len data  ) ( + ( str.indexof data " " 0  ) 1  )  )  )  ) ( + ( str.indexof ( str.substr data ( + ( str.indexof data " " 0  ) 1  ) ( - ( str.len data  ) ( + ( str.indexof data " " 0  ) 1  )  )  ) " " 0  ) 1  )  )  ) " " 0  ) 1  )  )  ) " " 0  ) 1  ) ( - ( str.len ( str.substr ( str.substr ( str.substr data ( + ( str.indexof data " " 0  ) 1  ) ( - ( str.len data  ) ( + ( str.indexof data " " 0  ) 1  )  )  ) ( + ( str.indexof ( str.substr data ( + ( str.indexof data " " 0  ) 1  ) ( - ( str.len data  ) ( + ( str.indexof data " " 0  ) 1  )  )  ) " " 0  ) 1  ) ( - ( str.len ( str.substr data ( + ( str.indexof data " " 0  ) 1  ) ( - ( str.len data  ) ( + ( str.indexof data " " 0  ) 1  )  )  )  ) ( + ( str.indexof ( str.substr data ( + ( str.indexof data " " 0  ) 1  ) ( - ( str.len data  ) ( + ( str.indexof data " " 0  ) 1  )  )  ) " " 0  ) 1  )  )  ) ( + ( str.indexof ( str.substr ( str.substr data ( + ( str.indexof data " " 0  ) 1  ) ( - ( str.len data  ) ( + ( str.indexof data " " 0  ) 1  )  )  ) ( + ( str.indexof ( str.substr data ( + ( str.indexof data " " 0  ) 1  ) ( - ( str.len data  ) ( + ( str.indexof data " " 0  ) 1  )  )  ) " " 0  ) 1  ) ( - ( str.len ( str.substr data ( + ( str.indexof data " " 0  ) 1  ) ( - ( str.len data  ) ( + ( str.indexof data " " 0  ) 1  )  )  )  ) ( + ( str.indexof ( str.substr data ( + ( str.indexof data " " 0  ) 1  ) ( - ( str.len data  ) ( + ( str.indexof data " " 0  ) 1  )  )  ) " " 0  ) 1  )  )  ) " " 0  ) 1  ) ( - ( str.len ( str.substr ( str.substr data ( + ( str.indexof data " " 0  ) 1  ) ( - ( str.len data  ) ( + ( str.indexof data " " 0  ) 1  )  )  ) ( + ( str.indexof ( str.substr data ( + ( str.indexof data " " 0  ) 1  ) ( - ( str.len data  ) ( + ( str.indexof data " " 0  ) 1  )  )  ) " " 0  ) 1  ) ( - ( str.len ( str.substr data ( + ( str.indexof data " " 0  ) 1  ) ( - ( str.len data  ) ( + ( str.indexof data " " 0  ) 1  )  )  )  ) ( + ( str.indexof ( str.substr data ( + ( str.indexof data " " 0  ) 1  ) ( - ( str.len data  ) ( + ( str.indexof data " " 0  ) 1  )  )  ) " " 0  ) 1  )  )  )  ) ( + ( str.indexof ( str.substr ( str.substr data ( + ( str.indexof data " " 0  ) 1  ) ( - ( str.len data  ) ( + ( str.indexof data " " 0  ) 1  )  )  ) ( + ( str.indexof ( str.substr data ( + ( str.indexof data " " 0  ) 1  ) ( - ( str.len data  ) ( + ( str.indexof data " " 0  ) 1  )  )  ) " " 0  ) 1  ) ( - ( str.len ( str.substr data ( + ( str.indexof data " " 0  ) 1  ) ( - ( str.len data  ) ( + ( str.indexof data " " 0  ) 1  )  )  )  ) ( + ( str.indexof ( str.substr data ( + ( str.indexof data " " 0  ) 1  ) ( - ( str.len data  ) ( + ( str.indexof data " " 0  ) 1  )  )  ) " " 0  ) 1  )  )  ) " " 0  ) 1  )  )  )  ) ( + ( str.indexof ( str.substr ( str.substr ( str.substr data ( + ( str.indexof data " " 0  ) 1  ) ( - ( str.len data  ) ( + ( str.indexof data " " 0  ) 1  )  )  ) ( + ( str.indexof ( str.substr data ( + ( str.indexof data " " 0  ) 1  ) ( - ( str.len data  ) ( + ( str.indexof data " " 0  ) 1  )  )  ) " " 0  ) 1  ) ( - ( str.len ( str.substr data ( + ( str.indexof data " " 0  ) 1  ) ( - ( str.len data  ) ( + ( str.indexof data " " 0  ) 1  )  )  )  ) ( + ( str.indexof ( str.substr data ( + ( str.indexof data " " 0  ) 1  ) ( - ( str.len data  ) ( + ( str.indexof data " " 0  ) 1  )  )  ) " " 0  ) 1  )  )  ) ( + ( str.indexof ( str.substr ( str.substr data ( + ( str.indexof data " " 0  ) 1  ) ( - ( str.len data  ) ( + ( str.indexof data " " 0  ) 1  )  )  ) ( + ( str.indexof ( str.substr data ( + ( str.indexof data " " 0  ) 1  ) ( - ( str.len data  ) ( + ( str.indexof data " " 0  ) 1  )  )  ) " " 0  ) 1  ) ( - ( str.len ( str.substr data ( + ( str.indexof data " " 0  ) 1  ) ( - ( str.len data  ) ( + ( str.indexof data " " 0  ) 1  )  )  )  ) ( + ( str.indexof ( str.substr data ( + ( str.indexof data " " 0  ) 1  ) ( - ( str.len data  ) ( + ( str.indexof data " " 0  ) 1  )  )  ) " " 0  ) 1  )  )  ) " " 0  ) 1  ) ( - ( str.len ( str.substr ( str.substr data ( + ( str.indexof data " " 0  ) 1  ) ( - ( str.len data  ) ( + ( str.indexof data " " 0  ) 1  )  )  ) ( + ( str.indexof ( str.substr data ( + ( str.indexof data " " 0  ) 1  ) ( - ( str.len data  ) ( + ( str.indexof data " " 0  ) 1  )  )  ) " " 0  ) 1  ) ( - ( str.len ( str.substr data ( + ( str.indexof data " " 0  ) 1  ) ( - ( str.len data  ) ( + ( str.indexof data " " 0  ) 1  )  )  )  ) ( + ( str.indexof ( str.substr data ( + ( str.indexof data " " 0  ) 1  ) ( - ( str.len data  ) ( + ( str.indexof data " " 0  ) 1  )  )  ) " " 0  ) 1  )  )  )  ) ( + ( str.indexof ( str.substr ( str.substr data ( + ( str.indexof data " " 0  ) 1  ) ( - ( str.len data  ) ( + ( str.indexof data " " 0  ) 1  )  )  ) ( + ( str.indexof ( str.substr data ( + ( str.indexof data " " 0  ) 1  ) ( - ( str.len data  ) ( + ( str.indexof data " " 0  ) 1  )  )  ) " " 0  ) 1  ) ( - ( str.len ( str.substr data ( + ( str.indexof data " " 0  ) 1  ) ( - ( str.len data  ) ( + ( str.indexof data " " 0  ) 1  )  )  )  ) ( + ( str.indexof ( str.substr data ( + ( str.indexof data " " 0  ) 1  ) ( - ( str.len data  ) ( + ( str.indexof data " " 0  ) 1  )  )  ) " " 0  ) 1  )  )  ) " " 0  ) 1  )  )  ) " " 0  ) 1  )  )  ) "+" 0  ) (- 1)  ))

(assert ( = 4 4  ))

(assert (not ( = 4 3  )))

(assert ( str.suffixof "," ( str.substr data 0 ( - ( str.indexof data " " 0  ) 0  )  )  ))

(assert (not ( = ( str.len data  ) 0  )))
(assert (not ( not ( or ( or ( or ( or ( or ( or ( or ( or ( or ( or ( or ( or ( or ( or ( or ( or ( or ( or ( or ( or ( or ( or ( or ( = "jan" "as"  ) ( = "feb" "as"  )  ) ( = "mar" "as"  )  ) ( = "apr" "as"  )  ) ( = "may" "as"  )  ) ( = "jun" "as"  )  ) ( = "jul" "as"  )  ) ( = "aug" "as"  )  ) ( = "sep" "as"  )  ) ( = "oct" "as"  )  ) ( = "nov" "as"  )  ) ( = "dec" "as"  )  ) ( = "january" "as"  )  ) ( = "february" "as"  )  ) ( = "march" "as"  )  ) ( = "april" "as"  )  ) ( = "may" "as"  )  ) ( = "june" "as"  )  ) ( = "july" "as"  )  ) ( = "august" "as"  )  ) ( = "september" "as"  )  ) ( = "october" "as"  )  ) ( = "november" "as"  )  ) ( = "december" "as"  )  )  )))


(check-sat)

(exit)
